2249.0 34245.0 
2249.0 34245.0 
2264.0 32974.0 
2257.0 34180.0 
2248.0 34290.0 
2281.0 32912.0 
2260.0 33079.0 
2248.0 34290.0 
2311.0 32568.0 
2257.0 34180.0 
2251.0 34196.0 
2405.0 32541.0 
2479.0 32489.0 
2288.0 32762.0 
